tsp_instances/TSP20/instance83.tsp
NODE_COORD_SECTION
0 110 9
1 65 53
2 88 75
3 196 172
4 165 7
5 30 61
6 117 79
7 59 55
8 26 41
9 3 106
10 81 85
11 137 159
12 95 26
13 112 193
14 78 22
15 165 114
16 68 62
17 143 88
18 123 0
19 77 198
