tsp_instances/TSP20/instance83.opt.tour
TOUR_SECTION
1
13
15
3
11
17
2
8
9
6
10
20
14
12
4
16
18
7
5
19
-1